NAME: random_70_5
TYPE: TSP
COMMENT: random_70_5
DIMENSION: 70
EDGE_WEIGHT_TYPE: EUC_2D
NODE_COORD_SECTION
1 139 77
2 305 203
3 62 352
4 393 227
5 305 269
6 186 314
7 102 148
8 25 268
9 130 214
10 183 293
11 69 321
12 422 410
13 401 89
14 310 180
15 165 447
16 107 322
17 265 429
18 391 430
19 61 366
20 427 492
21 390 17
22 27 253
23 167 236
24 272 44
25 256 52
26 242 312
27 403 310
28 81 126
29 204 332
30 314 246
31 147 266
32 238 347
33 395 364
34 169 380
35 15 102
36 322 364
37 330 456
38 472 439
39 372 241
40 251 276
41 369 319
42 283 74
43 196 447
44 345 292
45 411 266
46 18 444
47 134 219
48 201 440
49 421 278
50 378 357
51 388 124
52 472 108
53 90 389
54 26 95
55 360 422
56 14 233
57 36 26
58 469 32
59 89 389
60 351 332
61 443 259
62 241 130
63 378 406
64 245 196
65 306 240
66 289 59
67 423 54
68 364 71
69 265 386
70 312 433
